66
1 0 15
2 0 38
2 1 4
3 0 18
3 1 26
3 2 38
4 0 16
4 1 34
4 2 39
4 3 40
5 0 24
5 1 26
5 2 18
5 3 45
5 4 9
6 0 18
6 1 46
6 2 16
6 3 46
6 4 2
6 5 34
7 0 13
7 1 46
7 2 4
7 3 38
7 4 4
7 5 7
7 6 18
8 0 10
8 1 15
8 2 42
8 3 10
8 4 6
8 5 12
8 6 3
8 7 33
9 0 1
9 1 6
9 2 32
9 3 43
9 4 46
9 5 40
9 6 1
9 7 16
9 8 38
10 0 4
10 1 33
10 2 45
10 3 25
10 4 37
10 5 41
10 6 18
10 7 44
10 8 36
10 9 30
11 0 40
11 1 8
11 2 43
11 3 4
11 4 7
11 5 29
11 6 42
11 7 1
11 8 45
11 9 11
11 10 30
12 0 5
12 1 28
12 2 24
12 3 4
12 4 30
12 5 1
12 6 19
12 7 23
12 8 29
12 9 21
12 10 15
12 11 43
13 0 36
13 1 20
13 2 3
13 3 12
13 4 15
13 5 22
13 6 46
13 7 39
13 8 13
13 9 9
13 10 30
13 11 6
13 12 45
14 0 18
14 1 26
14 2 6
14 3 18
14 4 20
14 5 44
14 6 16
14 7 23
14 8 42
14 9 30
14 10 38
14 11 27
14 12 24
14 13 16
15 0 42
15 1 13
15 2 22
15 3 1
15 4 38
15 5 44
15 6 3
15 7 7
15 8 35
15 9 15
15 10 3
15 11 12
15 12 36
15 13 37
15 14 9
16 0 25
16 1 46
16 2 34
16 3 32
16 4 36
16 5 14
16 6 30
16 7 39
16 8 43
16 9 26
16 10 4
16 11 2
16 12 1
16 13 39
16 14 24
16 15 21
17 0 43
17 1 7
17 2 45
17 3 35
17 4 35
17 5 43
17 6 26
17 7 17
17 8 21
17 9 13
17 10 28
17 11 40
17 12 37
17 13 8
17 14 46
17 15 43
17 16 27
18 0 35
18 1 28
18 2 38
18 3 29
18 4 18
18 5 22
18 6 8
18 7 34
18 8 20
18 9 28
18 10 33
18 11 24
18 12 36
18 13 31
18 14 6
18 15 19
18 16 2
18 17 12
19 0 9
19 1 32
19 2 4
19 3 10
19 4 42
19 5 8
19 6 23
19 7 4
19 8 17
19 9 37
19 10 33
19 11 1
19 12 11
19 13 18
19 14 18
19 15 26
19 16 25
19 17 17
19 18 1
20 0 44
20 1 37
20 2 3
20 3 36
20 4 8
20 5 43
20 6 41
20 7 18
20 8 32
20 9 7
20 10 27
20 11 7
20 12 30
20 13 7
20 14 27
20 15 31
20 16 4
20 17 11
20 18 21
20 19 40
21 0 7
21 1 36
21 2 39
21 3 10
21 4 34
21 5 33
21 6 39
21 7 24
21 8 34
21 9 27
21 10 28
21 11 16
21 12 46
21 13 31
21 14 14
21 15 4
21 16 30
21 17 39
21 18 45
21 19 22
21 20 10
22 0 13
22 1 14
22 2 33
22 3 1
22 4 21
22 5 7
22 6 27
22 7 19
22 8 38
22 9 35
22 10 18
22 11 10
22 12 45
22 13 22
22 14 20
22 15 5
22 16 24
22 17 24
22 18 19
22 19 37
22 20 26
22 21 29
23 0 45
23 1 34
23 2 46
23 3 39
23 4 18
23 5 2
23 6 35
23 7 14
23 8 33
23 9 10
23 10 16
23 11 33
23 12 20
23 13 44
23 14 10
23 15 31
23 16 6
23 17 39
23 18 40
23 19 13
23 20 30
23 21 1
23 22 17
24 0 22
24 1 45
24 2 30
24 3 17
24 4 6
24 5 34
24 6 19
24 7 37
24 8 44
24 9 41
24 10 45
24 11 12
24 12 26
24 13 10
24 14 43
24 15 41
24 16 15
24 17 31
24 18 16
24 19 9
24 20 39
24 21 23
24 22 11
24 23 34
25 0 9
25 1 42
25 2 42
25 3 16
25 4 17
25 5 26
25 6 2
25 7 34
25 8 15
25 9 13
25 10 39
25 11 18
25 12 36
25 13 29
25 14 27
25 15 17
25 16 25
25 17 14
25 18 23
25 19 4
25 20 6
25 21 21
25 22 39
25 23 18
25 24 42
26 0 28
26 1 21
26 2 22
26 3 40
26 4 20
26 5 11
26 6 23
26 7 1
26 8 33
26 9 15
26 10 38
26 11 42
26 12 20
26 13 46
26 14 14
26 15 30
26 16 20
26 17 23
26 18 5
26 19 26
26 20 23
26 21 5
26 22 38
26 23 18
26 24 26
26 25 28
27 0 10
27 1 24
27 2 11
27 3 33
27 4 9
27 5 34
27 6 18
27 7 43
27 8 32
27 9 28
27 10 46
27 11 12
27 12 44
27 13 7
27 14 22
27 15 22
27 16 17
27 17 37
27 18 35
27 19 7
27 20 23
27 21 26
27 22 5
27 23 7
27 24 9
27 25 41
27 26 45
28 0 43
28 1 13
28 2 39
28 3 6
28 4 19
28 5 13
28 6 16
28 7 43
28 8 11
28 9 46
28 10 33
28 11 24
28 12 5
28 13 2
28 14 39
28 15 6
28 16 1
28 17 24
28 18 29
28 19 7
28 20 40
28 21 21
28 22 11
28 23 9
28 24 32
28 25 42
28 26 4
28 27 24
29 0 25
29 1 25
29 2 39
29 3 35
29 4 29
29 5 8
29 6 46
29 7 21
29 8 14
29 9 39
29 10 13
29 11 44
29 12 13
29 13 2
29 14 16
29 15 40
29 16 32
29 17 14
29 18 40
29 19 39
29 20 1
29 21 21
29 22 43
29 23 29
29 24 18
29 25 43
29 26 11
29 27 20
29 28 14
30 0 10
30 1 26
30 2 11
30 3 45
30 4 3
30 5 29
30 6 28
30 7 33
30 8 13
30 9 5
30 10 37
30 11 17
30 12 12
30 13 23
30 14 33
30 15 17
30 16 5
30 17 8
30 18 32
30 19 8
30 20 35
30 21 32
30 22 4
30 23 43
30 24 35
30 25 22
30 26 27
30 27 38
30 28 41
30 29 44
31 0 4
31 1 19
31 2 3
31 3 3
31 4 9
31 5 32
31 6 31
31 7 1
31 8 9
31 9 8
31 10 27
31 11 3
31 12 13
31 13 32
31 14 24
31 15 2
31 16 26
31 17 44
31 18 20
31 19 7
31 20 25
31 21 8
31 22 6
31 23 30
31 24 34
31 25 5
31 26 3
31 27 44
31 28 22
31 29 13
31 30 23
32 0 8
32 1 32
32 2 29
32 3 45
32 4 38
32 5 22
32 6 15
32 7 5
32 8 32
32 9 1
32 10 34
32 11 6
32 12 31
32 13 32
32 14 42
32 15 12
32 16 11
32 17 29
32 18 43
32 19 27
32 20 5
32 21 4
32 22 44
32 23 20
32 24 29
32 25 19
32 26 36
32 27 29
32 28 32
32 29 21
32 30 23
32 31 46
33 0 29
33 1 22
33 2 11
33 3 11
33 4 27
33 5 17
33 6 16
33 7 43
33 8 32
33 9 16
33 10 16
33 11 1
33 12 9
33 13 20
33 14 24
33 15 27
33 16 6
33 17 35
33 18 1
33 19 14
33 20 4
33 21 6
33 22 34
33 23 44
33 24 30
33 25 21
33 26 34
33 27 5
33 28 7
33 29 5
33 30 14
33 31 30
33 32 22
34 0 17
34 1 21
34 2 41
34 3 3
34 4 6
34 5 15
34 6 14
34 7 37
34 8 2
34 9 28
34 10 11
34 11 30
34 12 17
34 13 16
34 14 2
34 15 37
34 16 20
34 17 5
34 18 27
34 19 36
34 20 20
34 21 6
34 22 4
34 23 7
34 24 35
34 25 21
34 26 25
34 27 15
34 28 28
34 29 3
34 30 22
34 31 30
34 32 39
34 33 45
35 0 23
35 1 14
35 2 46
35 3 23
35 4 3
35 5 43
35 6 25
35 7 6
35 8 29
35 9 13
35 10 39
35 11 38
35 12 20
35 13 43
35 14 29
35 15 35
35 16 17
35 17 45
35 18 29
35 19 26
35 20 11
35 21 17
35 22 36
35 23 34
35 24 13
35 25 2
35 26 18
35 27 1
35 28 15
35 29 16
35 30 42
35 31 15
35 32 7
35 33 6
35 34 46
36 0 4
36 1 23
36 2 27
36 3 34
36 4 42
36 5 34
36 6 43
36 7 22
36 8 27
36 9 40
36 10 1
36 11 37
36 12 25
36 13 29
36 14 41
36 15 7
36 16 29
36 17 37
36 18 42
36 19 15
36 20 45
36 21 39
36 22 24
36 23 11
36 24 33
36 25 34
36 26 14
36 27 41
36 28 12
36 29 19
36 30 23
36 31 45
36 32 34
36 33 14
36 34 11
36 35 42
37 0 38
37 1 36
37 2 23
37 3 5
37 4 34
37 5 23
37 6 44
37 7 32
37 8 23
37 9 8
37 10 28
37 11 8
37 12 28
37 13 1
37 14 44
37 15 26
37 16 28
37 17 38
37 18 31
37 19 4
37 20 19
37 21 35
37 22 17
37 23 22
37 24 6
37 25 5
37 26 46
37 27 17
37 28 41
37 29 22
37 30 33
37 31 25
37 32 46
37 33 23
37 34 12
37 35 34
37 36 14
38 0 25
38 1 14
38 2 15
38 3 22
38 4 27
38 5 23
38 6 21
38 7 34
38 8 40
38 9 39
38 10 40
38 11 24
38 12 38
38 13 22
38 14 44
38 15 24
38 16 45
38 17 32
38 18 22
38 19 18
38 20 12
38 21 7
38 22 10
38 23 9
38 24 11
38 25 30
38 26 17
38 27 9
38 28 3
38 29 15
38 30 18
38 31 30
38 32 8
38 33 36
38 34 40
38 35 26
38 36 6
38 37 29
39 0 11
39 1 32
39 2 1
39 3 15
39 4 34
39 5 21
39 6 17
39 7 26
39 8 38
39 9 44
39 10 17
39 11 19
39 12 41
39 13 43
39 14 4
39 15 41
39 16 46
39 17 45
39 18 41
39 19 37
39 20 7
39 21 10
39 22 2
39 23 3
39 24 2
39 25 39
39 26 17
39 27 31
39 28 25
39 29 25
39 30 29
39 31 5
39 32 11
39 33 1
39 34 33
39 35 4
39 36 33
39 37 17
39 38 35
40 0 18
40 1 30
40 2 26
40 3 8
40 4 36
40 5 31
40 6 23
40 7 37
40 8 41
40 9 27
40 10 26
40 11 38
40 12 28
40 13 30
40 14 16
40 15 11
40 16 23
40 17 23
40 18 6
40 19 41
40 20 7
40 21 25
40 22 11
40 23 20
40 24 28
40 25 22
40 26 22
40 27 29
40 28 4
40 29 12
40 30 45
40 31 2
40 32 39
40 33 5
40 34 25
40 35 41
40 36 35
40 37 31
40 38 4
40 39 27
41 0 5
41 1 7
41 2 34
41 3 14
41 4 20
41 5 25
41 6 33
41 7 30
41 8 30
41 9 17
41 10 11
41 11 8
41 12 35
41 13 42
41 14 45
41 15 13
41 16 29
41 17 9
41 18 20
41 19 40
41 20 46
41 21 33
41 22 44
41 23 40
41 24 23
41 25 29
41 26 37
41 27 4
41 28 16
41 29 30
41 30 19
41 31 20
41 32 1
41 33 46
41 34 5
41 35 21
41 36 3
41 37 13
41 38 34
41 39 15
41 40 3
42 0 41
42 1 42
42 2 8
42 3 38
42 4 23
42 5 41
42 6 8
42 7 2
42 8 36
42 9 16
42 10 38
42 11 27
42 12 6
42 13 25
42 14 19
42 15 7
42 16 12
42 17 22
42 18 16
42 19 46
42 20 1
42 21 10
42 22 6
42 23 7
42 24 27
42 25 27
42 26 7
42 27 7
42 28 2
42 29 24
42 30 14
42 31 3
42 32 39
42 33 9
42 34 15
42 35 36
42 36 37
42 37 21
42 38 16
42 39 17
42 40 33
42 41 7
43 0 3
43 1 8
43 2 13
43 3 38
43 4 15
43 5 4
43 6 26
43 7 9
43 8 9
43 9 2
43 10 39
43 11 35
43 12 5
43 13 21
43 14 15
43 15 31
43 16 42
43 17 22
43 18 27
43 19 12
43 20 24
43 21 15
43 22 25
43 23 44
43 24 21
43 25 33
43 26 44
43 27 37
43 28 9
43 29 14
43 30 16
43 31 28
43 32 13
43 33 43
43 34 20
43 35 8
43 36 24
43 37 30
43 38 24
43 39 26
43 40 46
43 41 4
43 42 35
44 0 8
44 1 17
44 2 31
44 3 25
44 4 1
44 5 37
44 6 23
44 7 12
44 8 28
44 9 31
44 10 6
44 11 30
44 12 7
44 13 31
44 14 27
44 15 25
44 16 9
44 17 3
44 18 2
44 19 43
44 20 35
44 21 7
44 22 19
44 23 17
44 24 31
44 25 12
44 26 22
44 27 22
44 28 27
44 29 38
44 30 19
44 31 37
44 32 41
44 33 18
44 34 38
44 35 18
44 36 31
44 37 16
44 38 32
44 39 34
44 40 7
44 41 9
44 42 41
44 43 7
45 0 18
45 1 13
45 2 37
45 3 27
45 4 15
45 5 12
45 6 33
45 7 24
45 8 14
45 9 13
45 10 41
45 11 11
45 12 22
45 13 40
45 14 3
45 15 45
45 16 46
45 17 19
45 18 16
45 19 20
45 20 3
45 21 46
45 22 23
45 23 34
45 24 28
45 25 22
45 26 46
45 27 4
45 28 35
45 29 6
45 30 23
45 31 7
45 32 9
45 33 29
45 34 25
45 35 17
45 36 41
45 37 43
45 38 37
45 39 35
45 40 4
45 41 5
45 42 35
45 43 23
45 44 13
46 0 35
46 1 2
46 2 34
46 3 36
46 4 1
46 5 35
46 6 14
46 7 43
46 8 17
46 9 18
46 10 3
46 11 3
46 12 16
46 13 6
46 14 29
46 15 1
46 16 46
46 17 32
46 18 43
46 19 25
46 20 7
46 21 9
46 22 20
46 23 37
46 24 42
46 25 24
46 26 43
46 27 16
46 28 37
46 29 45
46 30 35
46 31 31
46 32 17
46 33 29
46 34 25
46 35 21
46 36 17
46 37 18
46 38 12
46 39 12
46 40 38
46 41 28
46 42 19
46 43 45
46 44 15
46 45 5
47 0 36
47 1 31
47 2 36
47 3 25
47 4 35
47 5 7
47 6 5
47 7 33
47 8 20
47 9 36
47 10 35
47 11 10
47 12 36
47 13 15
47 14 5
47 15 21
47 16 35
47 17 28
47 18 42
47 19 6
47 20 6
47 21 26
47 22 27
47 23 14
47 24 11
47 25 34
47 26 37
47 27 5
47 28 9
47 29 18
47 30 40
47 31 28
47 32 1
47 33 42
47 34 35
47 35 40
47 36 37
47 37 44
47 38 29
47 39 4
47 40 2
47 41 27
47 42 25
47 43 37
47 44 21
47 45 21
47 46 18
48 0 21
48 1 10
48 2 32
48 3 21
48 4 7
48 5 3
48 6 2
48 7 45
48 8 11
48 9 6
48 10 18
48 11 33
48 12 6
48 13 11
48 14 38
48 15 18
48 16 14
48 17 37
48 18 42
48 19 20
48 20 23
48 21 2
48 22 23
48 23 25
48 24 32
48 25 38
48 26 26
48 27 36
48 28 10
48 29 18
48 30 44
48 31 20
48 32 46
48 33 35
48 34 34
48 35 33
48 36 8
48 37 34
48 38 29
48 39 6
48 40 4
48 41 34
48 42 44
48 43 44
48 44 26
48 45 27
48 46 35
48 47 12
49 0 20
49 1 20
49 2 8
49 3 23
49 4 41
49 5 10
49 6 16
49 7 14
49 8 35
49 9 13
49 10 46
49 11 17
49 12 30
49 13 10
49 14 7
49 15 15
49 16 13
49 17 39
49 18 2
49 19 46
49 20 42
49 21 9
49 22 14
49 23 28
49 24 10
49 25 29
49 26 15
49 27 30
49 28 18
49 29 21
49 30 43
49 31 27
49 32 1
49 33 46
49 34 44
49 35 28
49 36 16
49 37 32
49 38 20
49 39 41
49 40 32
49 41 27
49 42 22
49 43 22
49 44 8
49 45 31
49 46 38
49 47 23
49 48 4
50 0 30
50 1 39
50 2 6
50 3 31
50 4 3
50 5 29
50 6 1
50 7 46
50 8 3
50 9 44
50 10 32
50 11 1
50 12 4
50 13 38
50 14 12
50 15 19
50 16 11
50 17 28
50 18 20
50 19 24
50 20 15
50 21 27
50 22 34
50 23 28
50 24 26
50 25 18
50 26 21
50 27 45
50 28 24
50 29 35
50 30 22
50 31 7
50 32 45
50 33 38
50 34 14
50 35 37
50 36 22
50 37 10
50 38 39
50 39 3
50 40 44
50 41 10
50 42 30
50 43 37
50 44 33
50 45 4
50 46 35
50 47 29
50 48 22
50 49 4
51 0 23
51 1 39
51 2 21
51 3 38
51 4 28
51 5 26
51 6 29
51 7 12
51 8 33
51 9 40
51 10 22
51 11 2
51 12 41
51 13 29
51 14 9
51 15 14
51 16 4
51 17 4
51 18 44
51 19 5
51 20 18
51 21 37
51 22 32
51 23 40
51 24 24
51 25 17
51 26 21
51 27 40
51 28 3
51 29 37
51 30 25
51 31 15
51 32 2
51 33 37
51 34 37
51 35 38
51 36 25
51 37 5
51 38 29
51 39 7
51 40 31
51 41 30
51 42 46
51 43 22
51 44 16
51 45 22
51 46 1
51 47 38
51 48 8
51 49 8
51 50 15
52 0 9
52 1 29
52 2 36
52 3 3
52 4 20
52 5 39
52 6 1
52 7 9
52 8 11
52 9 28
52 10 25
52 11 30
52 12 26
52 13 2
52 14 25
52 15 12
52 16 12
52 17 33
52 18 31
52 19 38
52 20 6
52 21 30
52 22 24
52 23 16
52 24 2
52 25 16
52 26 37
52 27 29
52 28 25
52 29 21
52 30 45
52 31 29
52 32 29
52 33 8
52 34 4
52 35 11
52 36 28
52 37 21
52 38 9
52 39 24
52 40 30
52 41 7
52 42 17
52 43 14
52 44 39
52 45 45
52 46 3
52 47 46
52 48 15
52 49 18
52 50 40
52 51 33
53 0 28
53 1 35
53 2 22
53 3 20
53 4 12
53 5 7
53 6 18
53 7 17
53 8 22
53 9 38
53 10 46
53 11 46
53 12 7
53 13 5
53 14 35
53 15 26
53 16 30
53 17 22
53 18 38
53 19 27
53 20 15
53 21 34
53 22 4
53 23 11
53 24 20
53 25 40
53 26 37
53 27 6
53 28 46
53 29 34
53 30 2
53 31 46
53 32 37
53 33 37
53 34 34
53 35 30
53 36 28
53 37 34
53 38 45
53 39 37
53 40 7
53 41 4
53 42 41
53 43 29
53 44 29
53 45 46
53 46 13
53 47 24
53 48 37
53 49 6
53 50 35
53 51 3
53 52 27
54 0 24
54 1 13
54 2 13
54 3 5
54 4 4
54 5 42
54 6 39
54 7 27
54 8 40
54 9 26
54 10 21
54 11 7
54 12 11
54 13 5
54 14 42
54 15 43
54 16 31
54 17 35
54 18 24
54 19 36
54 20 44
54 21 33
54 22 29
54 23 17
54 24 33
54 25 36
54 26 32
54 27 33
54 28 37
54 29 8
54 30 1
54 31 18
54 32 32
54 33 28
54 34 13
54 35 32
54 36 15
54 37 34
54 38 8
54 39 46
54 40 31
54 41 13
54 42 39
54 43 27
54 44 1
54 45 23
54 46 20
54 47 38
54 48 3
54 49 34
54 50 4
54 51 39
54 52 37
54 53 20
55 0 43
55 1 26
55 2 16
55 3 31
55 4 25
55 5 40
55 6 35
55 7 44
55 8 40
55 9 28
55 10 21
55 11 12
55 12 1
55 13 18
55 14 21
55 15 10
55 16 43
55 17 12
55 18 32
55 19 44
55 20 41
55 21 6
55 22 25
55 23 7
55 24 33
55 25 4
55 26 18
55 27 8
55 28 45
55 29 19
55 30 34
55 31 15
55 32 10
55 33 29
55 34 8
55 35 42
55 36 19
55 37 39
55 38 9
55 39 7
55 40 7
55 41 24
55 42 40
55 43 17
55 44 5
55 45 9
55 46 22
55 47 12
55 48 29
55 49 41
55 50 5
55 51 28
55 52 2
55 53 8
55 54 23
56 0 12
56 1 21
56 2 4
56 3 23
56 4 42
56 5 20
56 6 24
56 7 16
56 8 13
56 9 38
56 10 34
56 11 21
56 12 19
56 13 20
56 14 43
56 15 5
56 16 15
56 17 30
56 18 9
56 19 33
56 20 20
56 21 40
56 22 16
56 23 17
56 24 9
56 25 19
56 26 12
56 27 26
56 28 45
56 29 24
56 30 43
56 31 40
56 32 6
56 33 19
56 34 7
56 35 19
56 36 42
56 37 16
56 38 30
56 39 35
56 40 17
56 41 28
56 42 5
56 43 21
56 44 26
56 45 16
56 46 19
56 47 7
56 48 1
56 49 5
56 50 41
56 51 25
56 52 31
56 53 14
56 54 30
56 55 3
57 0 4
57 1 41
57 2 2
57 3 6
57 4 39
57 5 7
57 6 39
57 7 34
57 8 39
57 9 14
57 10 4
57 11 16
57 12 26
57 13 14
57 14 5
57 15 20
57 16 4
57 17 44
57 18 22
57 19 13
57 20 23
57 21 25
57 22 43
57 23 27
57 24 5
57 25 10
57 26 22
57 27 20
57 28 22
57 29 45
57 30 46
57 31 14
57 32 14
57 33 4
57 34 28
57 35 8
57 36 26
57 37 12
57 38 43
57 39 12
57 40 21
57 41 35
57 42 19
57 43 23
57 44 3
57 45 12
57 46 20
57 47 6
57 48 42
57 49 25
57 50 22
57 51 37
57 52 26
57 53 38
57 54 3
57 55 9
57 56 10
58 0 24
58 1 35
58 2 44
58 3 35
58 4 39
58 5 32
58 6 26
58 7 33
58 8 18
58 9 21
58 10 14
58 11 16
58 12 31
58 13 16
58 14 26
58 15 23
58 16 10
58 17 41
58 18 3
58 19 43
58 20 33
58 21 35
58 22 35
58 23 26
58 24 18
58 25 1
58 26 27
58 27 35
58 28 19
58 29 25
58 30 7
58 31 8
58 32 13
58 33 2
58 34 5
58 35 21
58 36 13
58 37 38
58 38 44
58 39 13
58 40 16
58 41 27
58 42 12
58 43 37
58 44 22
58 45 25
58 46 28
58 47 20
58 48 36
58 49 42
58 50 2
58 51 16
58 52 18
58 53 13
58 54 16
58 55 26
58 56 28
58 57 36
59 0 35
59 1 2
59 2 37
59 3 35
59 4 43
59 5 16
59 6 22
59 7 19
59 8 8
59 9 38
59 10 42
59 11 36
59 12 6
59 13 18
59 14 33
59 15 41
59 16 36
59 17 8
59 18 2
59 19 43
59 20 7
59 21 42
59 22 10
59 23 39
59 24 11
59 25 25
59 26 13
59 27 31
59 28 42
59 29 22
59 30 22
59 31 25
59 32 42
59 33 40
59 34 33
59 35 8
59 36 14
59 37 4
59 38 27
59 39 7
59 40 31
59 41 44
59 42 26
59 43 27
59 44 10
59 45 9
59 46 11
59 47 29
59 48 26
59 49 41
59 50 41
59 51 6
59 52 29
59 53 15
59 54 35
59 55 24
59 56 4
59 57 11
59 58 23
60 0 19
60 1 18
60 2 22
60 3 12
60 4 27
60 5 4
60 6 22
60 7 44
60 8 30
60 9 5
60 10 7
60 11 27
60 12 10
60 13 9
60 14 4
60 15 4
60 16 15
60 17 31
60 18 8
60 19 27
60 20 35
60 21 8
60 22 41
60 23 29
60 24 19
60 25 3
60 26 6
60 27 3
60 28 28
60 29 29
60 30 3
60 31 7
60 32 11
60 33 24
60 34 28
60 35 2
60 36 7
60 37 26
60 38 17
60 39 15
60 40 45
60 41 10
60 42 2
60 43 39
60 44 26
60 45 19
60 46 3
60 47 16
60 48 23
60 49 11
60 50 17
60 51 16
60 52 17
60 53 41
60 54 4
60 55 35
60 56 5
60 57 42
60 58 13
60 59 7
61 0 45
61 1 16
61 2 44
61 3 15
61 4 28
61 5 34
61 6 15
61 7 36
61 8 38
61 9 40
61 10 32
61 11 27
61 12 8
61 13 22
61 14 24
61 15 44
61 16 29
61 17 41
61 18 32
61 19 7
61 20 24
61 21 36
61 22 43
61 23 38
61 24 7
61 25 31
61 26 33
61 27 32
61 28 1
61 29 4
61 30 30
61 31 12
61 32 8
61 33 6
61 34 23
61 35 45
61 36 45
61 37 6
61 38 36
61 39 7
61 40 43
61 41 28
61 42 29
61 43 14
61 44 42
61 45 26
61 46 42
61 47 35
61 48 29
61 49 3
61 50 12
61 51 2
61 52 4
61 53 13
61 54 19
61 55 45
61 56 31
61 57 1
61 58 37
61 59 30
61 60 39
62 0 36
62 1 17
62 2 34
62 3 36
62 4 6
62 5 19
62 6 35
62 7 15
62 8 13
62 9 15
62 10 19
62 11 43
62 12 20
62 13 40
62 14 34
62 15 46
62 16 43
62 17 25
62 18 7
62 19 6
62 20 3
62 21 37
62 22 13
62 23 25
62 24 34
62 25 13
62 26 16
62 27 41
62 28 43
62 29 21
62 30 22
62 31 25
62 32 19
62 33 16
62 34 46
62 35 39
62 36 35
62 37 44
62 38 1
62 39 23
62 40 11
62 41 39
62 42 15
62 43 41
62 44 41
62 45 42
62 46 39
62 47 31
62 48 31
62 49 10
62 50 1
62 51 12
62 52 32
62 53 27
62 54 35
62 55 15
62 56 43
62 57 10
62 58 43
62 59 24
62 60 36
62 61 21
63 0 29
63 1 36
63 2 23
63 3 26
63 4 21
63 5 13
63 6 21
63 7 13
63 8 31
63 9 29
63 10 17
63 11 11
63 12 7
63 13 35
63 14 17
63 15 26
63 16 5
63 17 3
63 18 20
63 19 22
63 20 10
63 21 14
63 22 17
63 23 24
63 24 41
63 25 18
63 26 25
63 27 30
63 28 8
63 29 21
63 30 8
63 31 23
63 32 4
63 33 13
63 34 26
63 35 25
63 36 14
63 37 12
63 38 32
63 39 40
63 40 4
63 41 25
63 42 14
63 43 33
63 44 19
63 45 44
63 46 1
63 47 12
63 48 18
63 49 30
63 50 18
63 51 7
63 52 16
63 53 44
63 54 39
63 55 23
63 56 23
63 57 25
63 58 41
63 59 46
63 60 34
63 61 7
63 62 45
64 0 30
64 1 9
64 2 14
64 3 4
64 4 34
64 5 25
64 6 29
64 7 42
64 8 43
64 9 1
64 10 10
64 11 38
64 12 15
64 13 43
64 14 28
64 15 26
64 16 28
64 17 46
64 18 27
64 19 1
64 20 31
64 21 35
64 22 37
64 23 17
64 24 42
64 25 33
64 26 43
64 27 43
64 28 10
64 29 23
64 30 3
64 31 5
64 32 38
64 33 29
64 34 46
64 35 17
64 36 44
64 37 39
64 38 15
64 39 13
64 40 38
64 41 23
64 42 2
64 43 35
64 44 14
64 45 29
64 46 2
64 47 17
64 48 29
64 49 22
64 50 5
64 51 8
64 52 25
64 53 19
64 54 34
64 55 18
64 56 44
64 57 46
64 58 20
64 59 5
64 60 8
64 61 21
64 62 45
64 63 23
65 0 4
65 1 11
65 2 39
65 3 21
65 4 33
65 5 22
65 6 36
65 7 36
65 8 20
65 9 36
65 10 19
65 11 43
65 12 21
65 13 24
65 14 10
65 15 8
65 16 13
65 17 24
65 18 46
65 19 38
65 20 33
65 21 36
65 22 14
65 23 26
65 24 3
65 25 38
65 26 45
65 27 15
65 28 46
65 29 27
65 30 26
65 31 45
65 32 3
65 33 2
65 34 46
65 35 1
65 36 32
65 37 5
65 38 14
65 39 45
65 40 30
65 41 8
65 42 46
65 43 46
65 44 27
65 45 25
65 46 46
65 47 5
65 48 37
65 49 41
65 50 43
65 51 3
65 52 44
65 53 39
65 54 10
65 55 29
65 56 17
65 57 38
65 58 3
65 59 35
65 60 26
65 61 36
65 62 27
65 63 10
65 64 22
